; benchmark generated from python API
(set-info :status unknown)
(declare-datatypes ((RealState 0)) (((RMk1 (rval1 Real)) (RMk2 (rval2 Real)))))
 (assert
 (forall ((|v9:0| Real) )(exists ((|v8:1_st| RealState) (val!1315 Real) )(forall ((|v7:2| Real) )(exists ((|v6:3_st| RealState) (val!1316 Real) )(forall ((|v5:4| Real) )(exists ((|v4:5_st| RealState) (val!1317 Real) )(forall ((|v3:6| Real) )(exists ((|v2:7_st| RealState) (val!1318 Real) )(forall ((|v1:8| Real) )(exists ((|v0:9_st| RealState) (val!1319 Real) )(let ((?x1033 (rval2 |v0:9_st|)))
 (let ((?x222 (* 20.0 ?x1033)))
 (let (($x1061 (<= (+ (+ (* (- 1.0) |v1:8|) (* (- 1.0) (rval2 |v6:3_st|))) ?x222) 4.0)))
 (let (($x218 (<= (+ (+ (* (- 5.0) ?x1033) (* (- 1.0) |v3:6|)) (* 3.0 |v1:8|)) 14.0)))
 (let ((?x608 (- 12.0)))
 (let ((?x63 (rval2 |v8:1_st|)))
 (let ((?x58 (* 13.0 ?x63)))
 (let (($x853 (and (<= (+ (+ (* (- 13.0) |v7:2|) (* 2.0 ?x63)) ?x58) ?x608) (or $x218 $x1061))))
 (let ((?x913 (+ (+ (* 14.0 ?x63) (* (- 2.0) (rval2 |v6:3_st|))) (* (- 9.0) ?x63))))
 (let (($x1123 (<= (+ (+ (* (- 13.0) |v5:4|) (* (- 4.0) |v3:6|)) (* 4.0 ?x63)) 15.0)))
 (let ((?x475 (+ (+ (* 11.0 (rval2 |v4:5_st|)) (* 12.0 (rval2 |v6:3_st|))) (* (- 4.0) (rval2 |v6:3_st|)))))
 (let ((?x346 (- 15.0)))
 (let ((?x1037 (* ?x346 |v3:6|)))
 (let ((?x319 (- 3.0)))
 (let ((?x914 (* 18.0 |v1:8|)))
 (let (($x635 (<= (+ (+ (* 7.0 (rval2 |v2:7_st|)) (* (- 6.0) (rval2 |v2:7_st|))) ?x914) ?x319)))
 (let (($x956 (or $x635 (<= (+ (+ (* (- 8.0) ?x1033) (* (- 1.0) |v9:0|)) ?x1037) 11.0))))
 (let ((?x1239 (- 11.0)))
 (let (($x414 (<= (+ (+ (* 18.0 ?x1033) (* 15.0 |v5:4|)) (* (- 16.0) ?x1033)) ?x1239)))
 (let ((?x1010 (- 16.0)))
 (let ((?x1150 (* ?x1010 ?x1033)))
 (let (($x212 (and (<= (+ (+ (* (- 5.0) |v1:8|) (* 14.0 (rval2 |v4:5_st|))) ?x1150) ?x346) $x414)))
 (let ((?x363 (+ (+ (* (- 10.0) ?x1033) (* (- 14.0) (rval2 |v6:3_st|))) (* ?x346 (rval2 |v6:3_st|)))))
 (let (($x357 (<= (+ (+ (* 13.0 (rval2 |v2:7_st|)) (* (- 8.0) |v3:6|)) (* 2.0 |v5:4|)) 6.0)))
 (let (($x948 (<= (+ (+ (* (- 2.0) |v3:6|) (* 12.0 |v3:6|)) (* 17.0 (rval2 |v4:5_st|))) 18.0)))
 (let (($x714 (and (or (and $x948 (or $x357 (<= ?x363 9.0))) (and $x212 $x956)) (or (and (and (<= ?x475 2.0) $x1123) (<= ?x913 11.0)) $x853))))
 (let ((?x188 (+ (+ (* (- 17.0) (rval2 |v4:5_st|)) (* 6.0 (rval2 |v2:7_st|))) (* ?x319 |v9:0|))))
 (let (($x210 (<= (+ (+ (* 5.0 |v7:2|) (rval2 |v6:3_st|)) (* (- 9.0) (rval2 |v6:3_st|))) 20.0)))
 (let ((?x1112 (+ (+ (* 17.0 (rval2 |v6:3_st|)) (* (- 9.0) |v1:8|)) (* (- 10.0) ?x63))))
 (let ((?x431 (- 9.0)))
 (let (($x904 (or (<= (+ (+ (* 0.0 (rval2 |v2:7_st|)) (* 17.0 |v5:4|)) |v3:6|) ?x431) (<= ?x1112 16.0))))
 (let (($x35 (<= (+ (+ (* 14.0 |v7:2|) (* 3.0 (rval2 |v2:7_st|))) (* 10.0 |v5:4|)) 4.0)))
 (let ((?x74 (- 5.0)))
 (let ((?x1093 (* ?x74 |v1:8|)))
 (let (($x503 (or (<= (+ (+ (* (- 17.0) |v3:6|) (* (- 20.0) |v7:2|)) ?x1093) ?x1010) $x35)))
 (let (($x457 (<= (+ (+ (* 5.0 |v5:4|) (* (- 1.0) ?x63)) (* ?x431 |v3:6|)) 0.0)))
 (let ((?x315 (+ (+ (* 12.0 |v3:6|) (* 5.0 (rval2 |v2:7_st|))) (* 19.0 (rval2 |v2:7_st|)))))
 (let (($x398 (and (or (and (<= ?x315 20.0) $x457) $x503) (or $x904 (and $x210 (<= ?x188 7.0))))))
 (let ((?x1246 (- 20.0)))
 (let (($x539 (<= (+ (+ (* 17.0 ?x1033) (* ?x346 |v5:4|)) (* (- 8.0) |v9:0|)) 19.0)))
 (let (($x1136 (and (<= (+ (+ (* ?x346 |v7:2|) (* 20.0 |v7:2|)) (* 20.0 |v7:2|)) 18.0) $x539)))
 (let (($x723 (and $x1136 (<= (+ (+ (* ?x1010 |v7:2|) (* (- 7.0) |v9:0|)) (* ?x1010 |v9:0|)) ?x1246))))
 (let ((?x1399 (- 1.0)))
 (let (($x1212 (<= (+ (+ (* 3.0 (rval2 |v2:7_st|)) (* 11.0 |v1:8|)) (* (- 17.0) ?x63)) 9.0)))
 (let (($x1178 (or $x1212 (<= (+ (+ (* (- 13.0) ?x63) (* ?x346 (rval2 |v2:7_st|))) |v9:0|) ?x1399))))
 (let ((?x1283 (- 14.0)))
 (let (($x1018 (<= (+ (+ (* 7.0 (rval2 |v4:5_st|)) (* 2.0 |v5:4|)) (* ?x319 ?x1033)) ?x1283)))
 (let (($x781 (and $x1018 (<= (+ (+ (* 8.0 |v3:6|) (* ?x1246 ?x1033)) (* ?x1010 ?x63)) ?x319))))
 (let (($x945 (not (= |v0:9_st| (RMk1 val!1319)))))
 (let (($x729 (not (= |v2:7_st| (RMk1 val!1318)))))
 (let (($x655 (not (= |v4:5_st| (RMk1 val!1317)))))
 (let (($x501 (not (= |v6:3_st| (RMk1 val!1316)))))
 (let (($x699 (not (= |v8:1_st| (RMk1 val!1315)))))
 (and $x699 $x501 $x655 $x729 $x945 (or (and (or (and $x781 $x1178) $x723) $x398) $x714))))))))))))))))))))))))))))))))))))))))))))))))))))))))
 )
 )
 )
 )
 )
 )
 )
 )
 )
 )
(check-sat)
